npieces = 5;	
nplayers = 10;	
duration = [1, 2, 8, 10, 6];
rehearsal = [[0, 1, 1, 1, 0], [1, 1, 1, 0, 1], [1, 1, 1, 1, 1], [1, 1, 1, 1, 0], [0, 0, 0, 0, 1], [1, 1, 1, 1, 1], [1, 1, 1, 1, 1], [0, 1, 1, 0, 1], [1, 1, 1, 1, 1], [1, 0, 1, 0, 1]];